Running for instance ./models/c204.txt
Generating routes...
Execution time:  2.542902  seconds
Academic license - for non-commercial use only
Warning: constraint name "Cliente esta na rota x1" has a space
Optimize a model with 26 rows, 10000 columns and 83865 nonzeros
Variable types: 0 continuous, 10000 integer (0 binary)
Coefficient statistics:
  Matrix range     [1e+00, 1e+00]
  Objective range  [2e+01, 3e+02]
  Bounds range     [1e+00, 1e+00]
  RHS range        [1e+00, 2e+01]
Found heuristic solution: objective 516.1110735
Presolve removed 1 rows and 1621 columns
Presolve time: 0.07s
Presolved: 25 rows, 8379 columns, 63396 nonzeros
Variable types: 0 continuous, 8379 integer (8379 binary)

Root relaxation: objective 3.179170e+02, 90 iterations, 0.01 seconds

    Nodes    |    Current Node    |     Objective Bounds      |     Work
 Expl Unexpl |  Obj  Depth IntInf | Incumbent    BestBd   Gap | It/Node Time

     0     0  317.91696    0   23  516.11107  317.91696  38.4%     -    0s
H    0     0                     353.5036367  317.91696  10.1%     -    0s
     0     0  317.91696    0   23  353.50364  317.91696  10.1%     -    0s
     0     0  320.96536    0   21  353.50364  320.96536  9.20%     -    0s
     0     0  320.96536    0   21  353.50364  320.96536  9.20%     -    0s
     0     0  324.00135    0   21  353.50364  324.00135  8.35%     -    0s
     0     0  324.00135    0   21  353.50364  324.00135  8.35%     -    0s
     0     0  328.21925    0   21  353.50364  328.21925  7.15%     -    0s
     0     0  328.54835    0   21  353.50364  328.54835  7.06%     -    0s
     0     0  328.54835    0   21  353.50364  328.54835  7.06%     -    0s
     0     0  330.79528    0   16  353.50364  330.79528  6.42%     -    0s
     0     0  330.79528    0   16  353.50364  330.79528  6.42%     -    0s
     0     0  331.25430    0   16  353.50364  331.25430  6.29%     -    0s
     0     0  335.81476    0   14  353.50364  335.81476  5.00%     -    0s
     0     0  337.23262    0    9  353.50364  337.23262  4.60%     -    0s
     0     0  337.23262    0    9  353.50364  337.23262  4.60%     -    0s

Explored 1 nodes (406 simplex iterations) in 0.58 seconds
Thread count was 8 (of 8 available processors)

Solution count 2: 353.504 516.111 

Optimal solution found (tolerance 1.00e-04)
Best objective 3.535036366528e+02, best bound 3.535036366528e+02, gap 0.0000%

Routes:
23 13 25
20 21 11 8 10 5 22
2 7 4 3 1 12 15 16 14 9 17 19 18 6 24

Distance: 353.503636653
Execution time:  4.011927  seconds
